<number of tasks>
50

<cycle time>
1000

<order strength>
0.195


<task times>
1 74
2 65
3 218
4 109
5 282
6 27
7 189
8 141
9 237
10 111
11 173
12 121
13 98
14 96
15 125
16 62
17 78
18 48
19 154
20 105
21 99
22 193
23 98
24 271
25 218
26 191
27 127
28 112
29 147
30 269
31 103
32 119
33 192
34 224
35 142
36 248
37 54
38 74
39 26
40 146
41 131
42 35
43 222
44 183
45 255
46 160
47 115
48 216
49 166
50 182

<precedence relations>
1,35
3,12
3,14
4,8
4,10
4,13
5,31
6,11
7,9
7,27
8,42
9,17
10,19
10,20
12,15
12,29
13,16
14,18
15,21
18,21
19,23
20,22
20,24
21,26
22,25
22,35
23,27
23,28
23,29
23,31
24,29
24,30
25,37
26,33
29,35
30,32
30,34
30,36
31,41
33,40
33,42
34,41
34,44
34,50
35,38
35,39
35,48
36,43
38,50
39,45
42,46
43,47
43,48
43,49

<end>
